c instance by G2
c solution = 0110001101001100011000110
c Known solution cost is 1336 
p cnf 25 30
w 5 88 68 52 63 5 83 16 94 86 65 90 15 54 99 40 4 42 40 92 12 22 78 40 83
-20 6 21 0
7 11 -12 0
-13 2 4 0
4 -2 3 0
4 10 -7 0
21 8 -23 0
14 17 12 0
-6 22 -14 0
21 -18 -17 0
-21 -7 -2 0
-18 11 -5 0
-14 9 -11 0
12 22 13 0
19 -24 15 0
-4 -13 1 0
-7 22 23 0
-16 -18 -10 0
-14 -1 -2 0
21 -13 7 0
-19 -12 9 0
-19 12 18 0
-24 -9 6 0
-20 -18 -9 0
22 5 -25 0
9 -22 2 0
-25 8 9 0
-24 -9 15 0
-15 17 -19 0
24 22 16 0
-22 -24 12 0
